p edge 100 441
e 1 37
e 1 39
e 1 43
e 1 48
e 1 49
e 1 55
e 1 74
e 1 76
e 1 84
e 2 5
e 2 22
e 2 25
e 2 31
e 2 44
e 2 46
e 2 47
e 2 58
e 2 62
e 2 68
e 2 78
e 3 30
e 3 51
e 3 58
e 3 59
e 3 65
e 3 81
e 3 93
e 4 14
e 4 20
e 4 23
e 4 35
e 4 49
e 4 54
e 4 60
e 4 78
e 4 88
e 4 90
e 4 99
e 5 22
e 5 36
e 5 38
e 5 58
e 5 75
e 5 78
e 5 82
e 5 95
e 5 98
e 6 14
e 6 18
e 6 19
e 6 28
e 6 35
e 6 38
e 6 42
e 6 65
e 6 75
e 6 76
e 6 77
e 7 27
e 7 30
e 7 55
e 7 65
e 7 80
e 7 85
e 7 89
e 7 95
e 8 14
e 8 22
e 8 30
e 8 44
e 8 45
e 8 73
e 8 74
e 8 84
e 8 89
e 9 60
e 9 62
e 9 71
e 9 93
e 10 27
e 10 30
e 10 39
e 10 43
e 10 49
e 10 58
e 10 61
e 10 63
e 10 73
e 10 77
e 10 89
e 10 95
e 10 96
e 10 98
e 11 16
e 11 42
e 11 44
e 11 55
e 11 62
e 11 66
e 11 87
e 11 89
e 11 93
e 12 35
e 12 54
e 12 65
e 12 70
e 12 86
e 12 98
e 12 99
e 13 22
e 13 24
e 13 41
e 13 42
e 13 46
e 13 81
e 13 100
e 14 21
e 14 22
e 14 30
e 14 60
e 14 64
e 14 68
e 14 80
e 14 81
e 14 82
e 14 83
e 14 98
e 15 25
e 15 38
e 15 58
e 15 73
e 16 28
e 16 40
e 16 46
e 16 50
e 16 67
e 16 91
e 17 21
e 17 34
e 17 53
e 17 75
e 17 87
e 18 24
e 18 33
e 19 45
e 19 54
e 20 21
e 20 23
e 20 28
e 20 29
e 20 32
e 20 43
e 20 53
e 20 66
e 20 94
e 20 97
e 21 45
e 21 47
e 21 49
e 21 52
e 21 54
e 21 58
e 21 74
e 21 97
e 22 23
e 22 24
e 22 30
e 22 41
e 22 45
e 22 60
e 22 77
e 22 83
e 22 87
e 23 32
e 23 44
e 23 54
e 23 56
e 23 67
e 23 74
e 23 78
e 23 90
e 23 92
e 23 95
e 23 96
e 24 42
e 24 45
e 24 47
e 24 48
e 24 52
e 24 62
e 24 90
e 24 95
e 24 96
e 25 28
e 25 36
e 25 49
e 25 62
e 25 65
e 25 70
e 25 79
e 25 96
e 26 28
e 26 34
e 26 50
e 26 51
e 26 58
e 26 62
e 26 63
e 26 70
e 26 72
e 26 94
e 27 42
e 27 55
e 27 65
e 27 76
e 28 37
e 28 53
e 28 54
e 28 61
e 28 74
e 28 80
e 28 82
e 28 93
e 29 33
e 29 35
e 29 43
e 29 45
e 29 62
e 29 74
e 29 79
e 29 84
e 29 86
e 30 48
e 30 53
e 30 54
e 30 69
e 30 71
e 30 75
e 30 79
e 31 38
e 31 47
e 31 58
e 32 38
e 32 40
e 32 47
e 32 56
e 32 81
e 32 87
e 32 89
e 32 96
e 33 36
e 33 46
e 33 70
e 33 76
e 34 56
e 34 86
e 34 87
e 34 88
e 35 46
e 35 51
e 35 52
e 35 62
e 35 63
e 35 100
e 36 56
e 36 61
e 36 80
e 37 97
e 38 45
e 38 57
e 38 64
e 38 76
e 38 96
e 39 51
e 39 71
e 39 91
e 39 93
e 40 46
e 40 64
e 40 69
e 40 90
e 40 96
e 41 48
e 41 56
e 41 60
e 42 53
e 42 60
e 42 62
e 42 68
e 42 99
e 43 48
e 43 50
e 43 72
e 43 86
e 43 89
e 43 96
e 43 99
e 44 69
e 45 47
e 45 49
e 45 50
e 45 64
e 45 80
e 46 59
e 46 65
e 46 87
e 46 91
e 47 87
e 47 98
e 48 52
e 48 75
e 48 99
e 49 61
e 49 80
e 49 91
e 50 63
e 50 75
e 50 85
e 51 63
e 51 75
e 51 78
e 51 80
e 51 88
e 52 60
e 52 67
e 52 68
e 52 77
e 52 94
e 53 62
e 53 64
e 53 68
e 53 86
e 53 88
e 53 91
e 54 55
e 54 66
e 54 76
e 54 79
e 54 81
e 54 85
e 54 89
e 54 94
e 54 96
e 55 68
e 55 79
e 55 90
e 55 98
e 56 66
e 56 67
e 56 89
e 56 98
e 57 80
e 57 81
e 57 94
e 57 99
e 58 76
e 58 77
e 58 81
e 58 85
e 58 89
e 59 63
e 59 74
e 59 94
e 59 97
e 60 63
e 60 66
e 60 68
e 60 92
e 61 67
e 61 73
e 61 91
e 62 63
e 62 69
e 62 80
e 62 86
e 62 91
e 63 74
e 63 85
e 63 94
e 64 99
e 65 69
e 65 73
e 65 81
e 65 87
e 65 89
e 65 99
e 66 68
e 66 70
e 66 72
e 66 95
e 66 100
e 67 80
e 67 85
e 67 96
e 68 69
e 68 82
e 68 90
e 68 98
e 69 70
e 69 76
e 69 78
e 69 94
e 70 76
e 70 78
e 70 80
e 70 87
e 71 86
e 72 90
e 73 78
e 73 94
e 74 77
e 74 78
e 74 92
e 75 77
e 75 89
e 75 95
e 75 96
e 75 100
e 76 90
e 79 81
e 79 83
e 79 89
e 79 98
e 80 98
e 80 99
e 81 96
e 82 87
e 82 90
e 83 84
e 83 86
e 84 85
e 84 88
e 84 95
e 85 87
e 85 88
e 86 88
e 86 96
e 87 89
e 88 92
e 91 93
e 92 93
